62      4       
17      24      17      18      
0       0       0       0       0       3       2       3       4       
7       0       0       5       0       1       23      
5       0       0       3       0       3       7       20      49      
1       0       8       0       0       3       5       8       9       
3       0       0       7       0       3       6       11      12      
5       3       0       0       0       2       17      29      
7       0       0       9       0       2       10      19      
2       7       0       0       0       1       35      
7       0       0       0       9       3       13      14      15      
6       0       0       0       8       2       44      57      
9       0       3       0       0       1       58      
4       0       0       0       2       2       24      28      
4       0       6       0       0       2       26      32      
10      0       0       4       0       3       16      40      50      
7       0       0       0       6       3       25      37      42      
10      0       0       10      0       2       22      38      
3       0       1       0       0       3       18      30      52      
7       0       0       9       0       2       21      32      
10      0       9       0       0       1       27      
4       0       0       2       0       1       47      
5       0       2       0       0       2       39      48      
4       0       0       9       0       2       36      56      
7       0       0       0       9       2       46      55      
1       0       0       0       7       1       50      
2       0       0       0       7       1       35      
2       0       9       0       0       1       44      
1       9       0       0       0       1       31      
6       0       2       0       0       1       56      
1       0       0       0       6       1       61      
8       2       0       0       0       1       33      
2       0       0       9       0       2       43      47      
10      0       0       5       0       1       43      
4       0       7       0       0       1       34      
9       0       0       0       8       1       54      
7       0       5       0       0       2       45      53      
5       0       0       6       0       1       54      
7       5       0       0       0       1       41      
6       0       0       10      0       2       53      55      
2       0       0       0       9       1       45      
2       4       0       0       0       1       41      
7       0       1       0       0       1       48      
4       0       0       0       10      1       58      
4       7       0       0       0       1       51      
9       0       1       0       0       1       60      
6       9       0       0       0       1       57      
2       9       0       0       0       1       49      
3       0       0       0       9       1       53      
3       9       0       0       0       2       51      59      
2       0       0       4       0       2       51      52      
3       0       3       0       0       1       55      
7       0       7       0       0       1       61      
9       3       0       0       0       2       54      56      
7       0       0       0       2       1       57      
4       0       0       2       0       1       60      
1       8       0       0       0       1       59      
9       0       3       0       0       1       60      
10      6       0       0       0       1       59      
2       0       10      0       0       1       61      
10      5       0       0       0       1       62      
3       0       0       5       0       1       62      
2       0       0       2       0       1       62      
0       0       0       0       0       0       